0 0 0 0
0 1 0 1
0 2 0 0
0 3 0 6
0 4 0 6
0 5 2 9
0 6 1 9
0 7 1 1
0 8 0 7
0 9 1 22
0 10 0 14
0 11 0 17
0 12 0 14
0 13 0 21
0 14 0 26
0 15 2 15
0 16 0 31
0 17 0 29
0 18 0 33
0 19 1 27
0 20 0 27
0 21 1 34
0 22 0 17
0 23 1 29
0 24 1 29
0 25 0 38
0 26 0 35
0 27 0 38
0 28 0 37
0 29 0 39
0 30 0 41
0 31 0 44
